% demand
num_movements = 26;
loading_factor = [1700, 1950, 1100, 1800, 1400, 800, 1300, 1300, 800, 1200, 1200, 1400, 1950, 1100, 1850, 850, 1900, 1200, 800, 1750, 800, 1550, 1800, 1850, 1300, 1350];
pickup_time = [0, 0, 0, 3, 3, 3, 3, 4, 6, 6, 6, 8, 9, 9, 9, 10, 10, 10, 11, 11, 12, 12, 13, 13, 13, 13];
delivery_time = [8, 1, 2, 5, 5, 8, 4, 7, 7, 8, 8, 10, 13, 11, 10, 11, 13, 11, 13, 12, 13, 13, 14, 14, 14, 14];

% transporter definition
total_capacity = 7000;
num_decks = 3;
capacity = [3000, 1000, 3000];

% ways out of decks
num_ways_out = 1;
paths_out = array3d(decks, ways_out, decks, [
% ways out of deck d1
2, 3, 0, 

% ways out of deck d2
3, 0, 0, 

% ways out of deck d3
0, 0, 0,	

]);

